
Gurobi 13.0.1 (linux64) logging started Sat Mar 21 21:07:38 2026

Set parameter LogFile to value "logs/50B_6F_robust_gamma_0d5_theta_0d05199999999999999_2026-03-21_21h07m24s.log"
Gurobi Optimizer version 13.0.1 build v13.0.1rc0 (linux64 - "Linux Mint 22")

CPU model: 12th Gen Intel(R) Core(TM) i7-12700, instruction set [SSE2|AVX|AVX2]
Thread count: 20 physical cores, 20 logical processors, using up to 20 threads

Non-default parameters:
TimeLimit  3600
SoftMemLimit  12

Optimize a model with 60351 rows, 780571 columns and 2406497 nonzeros (Max)
Model fingerprint: 0x6d27e8a3
Model has 735061 linear objective coefficients
Variable types: 15571 continuous, 765000 integer (765000 binary)
Coefficient statistics:
  Matrix range     [3e-05, 1e+05]
  Objective range  [1e+00, 3e+03]
  Bounds range     [1e+00, 1e+05]
  RHS range        [8e-03, 1e+05]

Presolve removed 31036 rows and 564142 columns
Presolve time: 1.38s
Presolved: 29315 rows, 216429 columns, 690965 nonzeros
Variable types: 7521 continuous, 208908 integer (208908 binary)
Found heuristic solution: objective -3.92159e+08
Found heuristic solution: objective -3.90544e+08
Deterministic concurrent LP optimizer: primal simplex, dual simplex, and barrier
Showing barrier log only...

Root barrier log...

Ordering time: 0.42s

Barrier statistics:
 AA' NZ     : 4.006e+05
 Factor NZ  : 3.152e+06 (roughly 120 MB of memory)
 Factor Ops : 6.047e+08 (less than 1 second per iteration)
 Threads    : 18

                  Objective                Residual
Iter       Primal          Dual         Primal    Dual     Compl     Time
   0  -4.95942404e+11  1.05074284e+09  6.85e+06 1.02e+03  6.74e+06     3s
   1  -6.60875843e+10  1.84369350e+09  9.14e+05 1.32e+02  9.17e+05     3s
   2  -3.52534236e+09  1.46869073e+09  4.80e+04 4.21e+01  5.13e+04     3s
   3  -4.53160048e+07  8.75256307e+08  1.75e+03 6.13e-02  3.37e+03     3s
   4   6.63368605e+07  2.78122424e+08  2.46e+02 3.00e-11  5.97e+02     3s
   5   7.57682378e+07  1.70446689e+08  1.18e+02 3.46e-11  2.65e+02     3s
   6   8.08307034e+07  1.37033713e+08  4.98e+01 3.87e-11  1.47e+02     3s
   7   8.33294759e+07  1.16603910e+08  1.76e+01 4.47e-11  8.18e+01     3s
   8   8.38673044e+07  9.65626023e+07  1.14e+01 1.15e-10  3.25e+01     3s
   9   8.45063087e+07  8.95925692e+07  4.27e+00 1.06e-10  1.25e+01     3s
  10   8.47751137e+07  8.83995223e+07  1.73e+00 1.15e-10  8.45e+00     3s
  11   8.49593563e+07  8.61121082e+07  3.21e-01 2.04e-10  2.59e+00     3s
  12   8.50172832e+07  8.56279845e+07  1.99e-01 1.32e-10  1.37e+00     3s
  13   8.51218536e+07  8.53839862e+07  5.18e-02 1.17e-10  5.86e-01     3s
  14   8.51524253e+07  8.52712284e+07  1.68e-02 1.09e-10  2.66e-01     3s
  15   8.51635515e+07  8.52168755e+07  6.18e-03 1.14e-10  1.19e-01     3s
  16   8.51684144e+07  8.51930457e+07  2.58e-03 1.05e-10  5.50e-02     3s
  17   8.51705702e+07  8.51830566e+07  1.32e-03 1.13e-10  2.79e-02     3s
  18   8.51713654e+07  8.51822795e+07  8.88e-04 1.40e-10  2.44e-02     4s
  19   8.51721288e+07  8.51796440e+07  4.98e-04 1.33e-10  1.68e-02     4s
  20   8.51723949e+07  8.51783419e+07  3.73e-04 1.50e-10  1.33e-02     4s
  21   8.51727775e+07  8.51767326e+07  1.96e-04 1.23e-10  8.84e-03     4s
  22   8.51729669e+07  8.51757264e+07  9.11e-05 1.22e-10  6.17e-03     4s
  23   8.51730869e+07  8.51747986e+07  4.80e-05 1.09e-10  3.83e-03     4s
  24   8.51731124e+07  8.51745075e+07  3.63e-05 1.26e-10  3.12e-03     4s
  25   8.51731529e+07  8.51740558e+07  2.00e-05 1.18e-10  2.02e-03     4s
  26   8.51731766e+07  8.51737857e+07  1.28e-05 1.11e-10  1.36e-03     4s
  27   8.51731897e+07  8.51737589e+07  8.89e-06 1.55e-10  1.27e-03     4s
  28   8.51731991e+07  8.51735923e+07  4.88e-06 1.37e-10  8.79e-04     4s
  29   8.51732085e+07  8.51734332e+07  2.50e-06 1.22e-10  5.02e-04     4s
  30   8.51732121e+07  8.51733867e+07  1.59e-06 1.24e-10  3.90e-04     4s
  31   8.51732142e+07  8.51732501e+07  8.28e-07 1.10e-10  8.02e-05     4s
  32   8.51732170e+07  8.51732251e+07  3.85e-07 9.78e-11  1.81e-05     4s
  33   8.51732191e+07  8.51732213e+07  7.91e-08 9.25e-11  4.96e-06     4s
  34   8.51732196e+07  8.51732208e+07  6.21e-08 1.17e-10  2.66e-06     4s
  35   8.51732197e+07  8.51732201e+07  3.26e-08 9.57e-11  9.51e-07     5s
  36   8.51732197e+07  8.51732198e+07  1.77e-07 1.04e-10  2.60e-08     5s
  37   8.51732198e+07  8.51732198e+07  1.38e-08 8.16e-11  2.60e-11     5s

Barrier solved model in 37 iterations and 4.66 seconds (5.99 work units)
Optimal objective 8.51732198e+07


Root crossover log...

       0 PPushes remaining with PInf 0.0000000e+00                 5s

  Push phase complete: Pinf 0.0000000e+00, Dinf 2.0658648e+04      5s


Root simplex log...

Iteration    Objective       Primal Inf.    Dual Inf.      Time
   14585    8.5173220e+07   0.000000e+00   2.065865e+04      5s
   15427    8.5173220e+07   0.000000e+00   0.000000e+00      5s
Crossover time: 0.67 seconds (0.63 work units)
Concurrent spin time: 0.01s

Solved with barrier

Root relaxation: objective 8.517322e+07, 15427 iterations, 3.53 seconds (3.66 work units)

    Nodes    |    Current Node    |     Objective Bounds      |     Work
 Expl Unexpl |  Obj  Depth IntInf | Incumbent    BestBd   Gap | It/Node Time

     0     0 8.5173e+07    0 4935 -3.905e+08 8.5173e+07   122%     -    7s
H    0     0                    -2.10515e+08 8.5173e+07   140%     -    8s
H    0     0                    -7.72030e+07 8.5173e+07   210%     -    8s
H    0     0                    -6.22530e+07 8.5173e+07   237%     -   10s
H    0     0                    -5.70678e+07 8.5173e+07   249%     -   13s
H    0     0                    -4.29833e+07 8.5173e+07   298%     -   13s
H    0     0                    -5818554.407 8.5173e+07  1564%     -   15s
H    0     0                    3.021945e+07 8.5173e+07   182%     -   15s
H    0     0                    4.269438e+07 8.5173e+07  99.5%     -   16s
H    0     0                    4.294383e+07 8.5173e+07  98.3%     -   17s
H    0     0                    5.245596e+07 8.5173e+07  62.4%     -   19s
H    0     0                    5.377391e+07 8.5173e+07  58.4%     -   20s
H    0     0                    5.378264e+07 8.5173e+07  58.4%     -   20s
H    0     0                    5.382379e+07 8.5173e+07  58.2%     -   20s
H    0     0                    5.542014e+07 8.5173e+07  53.7%     -   20s
     0     0 8.5173e+07    0 4976 5.5420e+07 8.5173e+07  53.7%     -   27s
H    0     0                    5.716266e+07 8.5173e+07  49.0%     -   34s
     0     0 8.5173e+07    0 5898 5.7163e+07 8.5173e+07  49.0%     -   57s
     0     0 8.5173e+07    0 5041 5.7163e+07 8.5173e+07  49.0%     -   68s
     0     0 8.5173e+07    0 5069 5.7163e+07 8.5173e+07  49.0%     -   69s
     0     0 8.5173e+07    0 6179 5.7163e+07 8.5173e+07  49.0%     -   78s
     0     0 8.5173e+07    0 6210 5.7163e+07 8.5173e+07  49.0%     -   80s
     0     0 8.5172e+07    0 7623 5.7163e+07 8.5172e+07  49.0%     -   95s
     0     0 8.5172e+07    0 7165 5.7163e+07 8.5172e+07  49.0%     -   99s
     0     0 8.5172e+07    0 7506 5.7163e+07 8.5172e+07  49.0%     -  108s
     0     0 8.5172e+07    0 7228 5.7163e+07 8.5172e+07  49.0%     -  125s
     0     0 8.5172e+07    0 7241 5.7163e+07 8.5172e+07  49.0%     -  133s
     0     0 8.5172e+07    0 7241 5.7163e+07 8.5172e+07  49.0%     -  137s
     0     0 8.5172e+07    0 5251 5.7163e+07 8.5172e+07  49.0%     -  141s
H    0     0                    5.807602e+07 8.5172e+07  46.7%     -  161s
H    0     0                    6.224032e+07 8.5172e+07  36.8%     -  162s
H    0     0                    6.371616e+07 8.5172e+07  33.7%     -  173s
H    0     0                    6.577792e+07 8.5172e+07  29.5%     -  173s
H    0     0                    6.624588e+07 8.5172e+07  28.6%     -  175s
H    0     0                    6.718248e+07 8.5172e+07  26.8%     -  181s
H    0     0                    6.913195e+07 8.5172e+07  23.2%     -  310s
H    0     0                    7.002446e+07 8.5172e+07  21.6%     -  325s
H    0     0                    7.004854e+07 8.5172e+07  21.6%     -  341s
H    0     0                    7.004858e+07 8.5172e+07  21.6%     -  345s
H    0     0                    7.038418e+07 8.5172e+07  21.0%     -  356s
H    0     0                    7.044237e+07 8.5172e+07  20.9%     -  365s
H    0     0                    7.044745e+07 8.5172e+07  20.9%     -  365s
H    0     0                    7.044913e+07 8.5172e+07  20.9%     -  367s
H    0     0                    7.045155e+07 8.5172e+07  20.9%     -  367s
H    0     0                    7.045175e+07 8.5172e+07  20.9%     -  367s
     0     2 8.5172e+07    0 5251 7.0452e+07 8.5172e+07  20.9%     -  377s
     1     4 8.5172e+07    1 6807 7.0452e+07 8.5172e+07  20.9%  3330  383s
     3     8 8.5172e+07    2 6913 7.0452e+07 8.5172e+07  20.9%  2339  390s
     7    16 8.5172e+07    3 6538 7.0452e+07 8.5172e+07  20.9%  2352  401s
H    8    16                    7.045754e+07 8.5172e+07  20.9%  2058  401s
    15    32 8.5172e+07    4 7024 7.0458e+07 8.5172e+07  20.9%  2697  450s
    31    52 8.5172e+07    5 6572 7.0458e+07 8.5172e+07  20.9%  4195  489s
H   33    52                    7.056365e+07 8.5172e+07  20.7%  3968  489s
    51   152 8.5172e+07    6 6347 7.0564e+07 8.5172e+07  20.7%  3323  587s
H  151   172                    7.090547e+07 8.5172e+07  20.1%  2037  629s
H  171   193                    7.317422e+07 8.5172e+07  16.4%  2037  682s
H  172   193                    7.414335e+07 8.5172e+07  14.9%  2051  682s
H  173   193                    7.557474e+07 8.5172e+07  12.7%  2042  682s
H  187   193                    7.595556e+07 8.5172e+07  12.1%  2033  682s
H  190   193                    7.603321e+07 8.5172e+07  12.0%  2044  682s
H  192   302                    7.603493e+07 8.5172e+07  12.0%  2043  791s
H  254   302                    7.603607e+07 8.5172e+07  12.0%  1896  791s
   301   487 8.5172e+07   13 5739 7.6036e+07 8.5172e+07  12.0%  1862 1044s
H  486   507                    7.692783e+07 8.5172e+07  10.7%  1946 1269s
H  487   507                    7.744203e+07 8.5172e+07  10.0%  1944 1269s
H  488   507                    7.789891e+07 8.5172e+07  9.34%  1946 1269s
H  506   775                    8.124732e+07 8.5172e+07  4.83%  1962 1643s
H  597   775                    8.218096e+07 8.5172e+07  3.64%  1945 1643s
   774  1015 8.5172e+07   20 5201 8.2181e+07 8.5172e+07  3.64%  1871 2145s
H  785  1015                    8.235749e+07 8.5172e+07  3.42%  1862 2145s
  1014  2331 8.5172e+07   31 5158 8.2357e+07 8.5172e+07  3.42%  1854 3507s
H 2330  2350                    8.241353e+07 8.5172e+07  3.35%  1727 3600s
H 2331  2350                    8.243408e+07 8.5172e+07  3.32%  1728 3600s
H 2334  2350                    8.248860e+07 8.5172e+07  3.25%  1729 3600s
H 2335  2350                    8.265467e+07 8.5172e+07  3.05%  1730 3600s
H 2341  2350                    8.265758e+07 8.5172e+07  3.04%  1732 3600s
H 2346  2350                    8.289001e+07 8.5172e+07  2.75%  1731 3600s

Cutting planes:
  Gomory: 1
  MIR: 53
  Flow cover: 154
  RLT: 3331
  Relax-and-lift: 3

Explored 2349 nodes (4136583 simplex iterations) in 3600.25 seconds (2569.35 work units)
Thread count was 20 (of 20 available processors)

Solution count 10: 8.289e+07 8.26576e+07 8.26547e+07 ... 7.78989e+07

Time limit reached
Best objective 8.289000552949e+07, best bound 8.517235531870e+07, gap 2.7535%
